p cnf 200 3248
1 2 3 4 5 0
6 7 8 9 10 0
11 12 13 14 15 0
16 17 18 19 20 0
21 22 23 24 25 0
26 27 28 29 30 0
31 32 33 34 35 0
36 37 38 39 40 0
41 42 43 44 45 0
46 47 48 49 50 0
51 52 53 54 55 0
56 57 58 59 60 0
61 62 63 64 65 0
66 67 68 69 70 0
71 72 73 74 75 0
76 77 78 79 80 0
81 82 83 84 85 0
86 87 88 89 90 0
91 92 93 94 95 0
96 97 98 99 100 0
101 102 103 104 105 0
106 107 108 109 110 0
111 112 113 114 115 0
116 117 118 119 120 0
121 122 123 124 125 0
126 127 128 129 130 0
131 132 133 134 135 0
136 137 138 139 140 0
141 142 143 144 145 0
146 147 148 149 150 0
151 152 153 154 155 0
156 157 158 159 160 0
161 162 163 164 165 0
166 167 168 169 170 0
171 172 173 174 175 0
176 177 178 179 180 0
181 182 183 184 185 0
186 187 188 189 190 0
191 192 193 194 195 0
196 197 198 199 200 0
-1 -2 0
-1 -3 0
-1 -4 0
-1 -5 0
-2 -3 0
-2 -4 0
-2 -5 0
-3 -4 0
-3 -5 0
-4 -5 0
-6 -7 0
-6 -8 0
-6 -9 0
-6 -10 0
-7 -8 0
-7 -9 0
-7 -10 0
-8 -9 0
-8 -10 0
-9 -10 0
-11 -12 0
-11 -13 0
-11 -14 0
-11 -15 0
-12 -13 0
-12 -14 0
-12 -15 0
-13 -14 0
-13 -15 0
-14 -15 0
-16 -17 0
-16 -18 0
-16 -19 0
-16 -20 0
-17 -18 0
-17 -19 0
-17 -20 0
-18 -19 0
-18 -20 0
-19 -20 0
-21 -22 0
-21 -23 0
-21 -24 0
-21 -25 0
-22 -23 0
-22 -24 0
-22 -25 0
-23 -24 0
-23 -25 0
-24 -25 0
-26 -27 0
-26 -28 0
-26 -29 0
-26 -30 0
-27 -28 0
-27 -29 0
-27 -30 0
-28 -29 0
-28 -30 0
-29 -30 0
-31 -32 0
-31 -33 0
-31 -34 0
-31 -35 0
-32 -33 0
-32 -34 0
-32 -35 0
-33 -34 0
-33 -35 0
-34 -35 0
-36 -37 0
-36 -38 0
-36 -39 0
-36 -40 0
-37 -38 0
-37 -39 0
-37 -40 0
-38 -39 0
-38 -40 0
-39 -40 0
-41 -42 0
-41 -43 0
-41 -44 0
-41 -45 0
-42 -43 0
-42 -44 0
-42 -45 0
-43 -44 0
-43 -45 0
-44 -45 0
-46 -47 0
-46 -48 0
-46 -49 0
-46 -50 0
-47 -48 0
-47 -49 0
-47 -50 0
-48 -49 0
-48 -50 0
-49 -50 0
-51 -52 0
-51 -53 0
-51 -54 0
-51 -55 0
-52 -53 0
-52 -54 0
-52 -55 0
-53 -54 0
-53 -55 0
-54 -55 0
-56 -57 0
-56 -58 0
-56 -59 0
-56 -60 0
-57 -58 0
-57 -59 0
-57 -60 0
-58 -59 0
-58 -60 0
-59 -60 0
-61 -62 0
-61 -63 0
-61 -64 0
-61 -65 0
-62 -63 0
-62 -64 0
-62 -65 0
-63 -64 0
-63 -65 0
-64 -65 0
-66 -67 0
-66 -68 0
-66 -69 0
-66 -70 0
-67 -68 0
-67 -69 0
-67 -70 0
-68 -69 0
-68 -70 0
-69 -70 0
-71 -72 0
-71 -73 0
-71 -74 0
-71 -75 0
-72 -73 0
-72 -74 0
-72 -75 0
-73 -74 0
-73 -75 0
-74 -75 0
-76 -77 0
-76 -78 0
-76 -79 0
-76 -80 0
-77 -78 0
-77 -79 0
-77 -80 0
-78 -79 0
-78 -80 0
-79 -80 0
-81 -82 0
-81 -83 0
-81 -84 0
-81 -85 0
-82 -83 0
-82 -84 0
-82 -85 0
-83 -84 0
-83 -85 0
-84 -85 0
-86 -87 0
-86 -88 0
-86 -89 0
-86 -90 0
-87 -88 0
-87 -89 0
-87 -90 0
-88 -89 0
-88 -90 0
-89 -90 0
-91 -92 0
-91 -93 0
-91 -94 0
-91 -95 0
-92 -93 0
-92 -94 0
-92 -95 0
-93 -94 0
-93 -95 0
-94 -95 0
-96 -97 0
-96 -98 0
-96 -99 0
-96 -100 0
-97 -98 0
-97 -99 0
-97 -100 0
-98 -99 0
-98 -100 0
-99 -100 0
-101 -102 0
-101 -103 0
-101 -104 0
-101 -105 0
-102 -103 0
-102 -104 0
-102 -105 0
-103 -104 0
-103 -105 0
-104 -105 0
-106 -107 0
-106 -108 0
-106 -109 0
-106 -110 0
-107 -108 0
-107 -109 0
-107 -110 0
-108 -109 0
-108 -110 0
-109 -110 0
-111 -112 0
-111 -113 0
-111 -114 0
-111 -115 0
-112 -113 0
-112 -114 0
-112 -115 0
-113 -114 0
-113 -115 0
-114 -115 0
-116 -117 0
-116 -118 0
-116 -119 0
-116 -120 0
-117 -118 0
-117 -119 0
-117 -120 0
-118 -119 0
-118 -120 0
-119 -120 0
-121 -122 0
-121 -123 0
-121 -124 0
-121 -125 0
-122 -123 0
-122 -124 0
-122 -125 0
-123 -124 0
-123 -125 0
-124 -125 0
-126 -127 0
-126 -128 0
-126 -129 0
-126 -130 0
-127 -128 0
-127 -129 0
-127 -130 0
-128 -129 0
-128 -130 0
-129 -130 0
-131 -132 0
-131 -133 0
-131 -134 0
-131 -135 0
-132 -133 0
-132 -134 0
-132 -135 0
-133 -134 0
-133 -135 0
-134 -135 0
-136 -137 0
-136 -138 0
-136 -139 0
-136 -140 0
-137 -138 0
-137 -139 0
-137 -140 0
-138 -139 0
-138 -140 0
-139 -140 0
-141 -142 0
-141 -143 0
-141 -144 0
-141 -145 0
-142 -143 0
-142 -144 0
-142 -145 0
-143 -144 0
-143 -145 0
-144 -145 0
-146 -147 0
-146 -148 0
-146 -149 0
-146 -150 0
-147 -148 0
-147 -149 0
-147 -150 0
-148 -149 0
-148 -150 0
-149 -150 0
-151 -152 0
-151 -153 0
-151 -154 0
-151 -155 0
-152 -153 0
-152 -154 0
-152 -155 0
-153 -154 0
-153 -155 0
-154 -155 0
-156 -157 0
-156 -158 0
-156 -159 0
-156 -160 0
-157 -158 0
-157 -159 0
-157 -160 0
-158 -159 0
-158 -160 0
-159 -160 0
-161 -162 0
-161 -163 0
-161 -164 0
-161 -165 0
-162 -163 0
-162 -164 0
-162 -165 0
-163 -164 0
-163 -165 0
-164 -165 0
-166 -167 0
-166 -168 0
-166 -169 0
-166 -170 0
-167 -168 0
-167 -169 0
-167 -170 0
-168 -169 0
-168 -170 0
-169 -170 0
-171 -172 0
-171 -173 0
-171 -174 0
-171 -175 0
-172 -173 0
-172 -174 0
-172 -175 0
-173 -174 0
-173 -175 0
-174 -175 0
-176 -177 0
-176 -178 0
-176 -179 0
-176 -180 0
-177 -178 0
-177 -179 0
-177 -180 0
-178 -179 0
-178 -180 0
-179 -180 0
-181 -182 0
-181 -183 0
-181 -184 0
-181 -185 0
-182 -183 0
-182 -184 0
-182 -185 0
-183 -184 0
-183 -185 0
-184 -185 0
-186 -187 0
-186 -188 0
-186 -189 0
-186 -190 0
-187 -188 0
-187 -189 0
-187 -190 0
-188 -189 0
-188 -190 0
-189 -190 0
-191 -192 0
-191 -193 0
-191 -194 0
-191 -195 0
-192 -193 0
-192 -194 0
-192 -195 0
-193 -194 0
-193 -195 0
-194 -195 0
-196 -197 0
-196 -198 0
-196 -199 0
-196 -200 0
-197 -198 0
-197 -199 0
-197 -200 0
-198 -199 0
-198 -200 0
-199 -200 0
-1 -8 0
-2 -9 0
-2 -8 0
-3 -9 0
-2 -6 0
-3 -6 0
-4 -7 0
-4 -9 0
-4 -10 0
-1 -7 0
-4 -6 0
-5 -9 0
-5 -31 0
-3 -34 0
-4 -34 0
-4 -32 0
-4 -33 0
-5 -35 0
-2 -35 0
-1 -35 0
-2 -33 0
-2 -32 0
-1 -33 0
-5 -34 0
-2 -39 0
-1 -36 0
-2 -36 0
-5 -37 0
-1 -38 0
-3 -40 0
-3 -36 0
-4 -38 0
-1 -40 0
-3 -39 0
-3 -37 0
-2 -38 0
-1 -48 0
-4 -49 0
-5 -46 0
-3 -48 0
-2 -50 0
-5 -48 0
-4 -47 0
-4 -46 0
-3 -49 0
-3 -47 0
-4 -50 0
-3 -50 0
-2 -51 0
-5 -51 0
-2 -55 0
-4 -53 0
-1 -51 0
-4 -55 0
-2 -54 0
-3 -54 0
-5 -52 0
-5 -54 0
-4 -52 0
-3 -52 0
-1 -65 0
-1 -61 0
-4 -61 0
-1 -62 0
-5 -63 0
-4 -65 0
-5 -64 0
-4 -64 0
-3 -65 0
-3 -61 0
-3 -62 0
-2 -64 0
-3 -83 0
-4 -82 0
-2 -84 0
-5 -81 0
-4 -81 0
-2 -81 0
-3 -81 0
-3 -85 0
-2 -82 0
-1 -85 0
-3 -82 0
-1 -84 0
-5 -92 0
-5 -91 0
-3 -95 0
-5 -93 0
-3 -92 0
-3 -91 0
-4 -93 0
-2 -95 0
-2 -93 0
-1 -91 0
-5 -95 0
-4 -91 0
-2 -107 0
-1 -109 0
-2 -106 0
-1 -108 0
-3 -106 0
-5 -106 0
-5 -110 0
-1 -110 0
-4 -107 0
-2 -110 0
-1 -107 0
-5 -108 0
-2 -116 0
-1 -119 0
-5 -116 0
-5 -120 0
-2 -120 0
-1 -118 0
-5 -118 0
-1 -120 0
-5 -119 0
-2 -119 0
-2 -118 0
-4 -120 0
-2 -130 0
-5 -130 0
-1 -128 0
-2 -128 0
-1 -129 0
-2 -127 0
-4 -128 0
-2 -126 0
-5 -129 0
-4 -126 0
-1 -126 0
-5 -127 0
-3 -193 0
-3 -192 0
-4 -193 0
-2 -194 0
-1 -193 0
-5 -192 0
-2 -195 0
-1 -191 0
-4 -194 0
-5 -194 0
-5 -193 0
-3 -194 0
-1 -197 0
-1 -198 0
-3 -200 0
-2 -197 0
-4 -200 0
-1 -196 0
-4 -197 0
-3 -199 0
-3 -198 0
-2 -196 0
-4 -199 0
-5 -197 0
-7 -20 0
-8 -20 0
-8 -18 0
-8 -17 0
-9 -17 0
-7 -18 0
-7 -16 0
-6 -16 0
-9 -19 0
-8 -16 0
-9 -20 0
-10 -19 0
-8 -30 0
-9 -27 0
-9 -26 0
-9 -28 0
-8 -26 0
-10 -26 0
-8 -28 0
-6 -30 0
-10 -27 0
-10 -28 0
-9 -29 0
-8 -27 0
-7 -47 0
-8 -48 0
-10 -48 0
-6 -49 0
-10 -50 0
-7 -46 0
-9 -46 0
-10 -47 0
-8 -49 0
-7 -48 0
-7 -50 0
-10 -49 0
-8 -52 0
-8 -54 0
-10 -53 0
-10 -55 0
-8 -55 0
-10 -54 0
-7 -51 0
-7 -54 0
-8 -53 0
-7 -53 0
-10 -51 0
-9 -52 0
-9 -57 0
-7 -58 0
-6 -57 0
-7 -60 0
-9 -56 0
-8 -58 0
-6 -56 0
-9 -59 0
-6 -58 0
-7 -57 0
-8 -60 0
-10 -58 0
-8 -70 0
-10 -70 0
-7 -69 0
-9 -67 0
-7 -66 0
-6 -70 0
-10 -66 0
-6 -66 0
-9 -66 0
-8 -69 0
-9 -70 0
-7 -70 0
-9 -83 0
-6 -84 0
-10 -84 0
-8 -83 0
-6 -81 0
-9 -82 0
-7 -84 0
-8 -82 0
-9 -81 0
-10 -82 0
-6 -85 0
-9 -85 0
-10 -93 0
-7 -94 0
-9 -93 0
-6 -93 0
-7 -92 0
-7 -91 0
-9 -91 0
-7 -93 0
-9 -94 0
-8 -92 0
-10 -95 0
-8 -93 0
-9 -101 0
-8 -101 0
-10 -104 0
-8 -102 0
-6 -104 0
-7 -104 0
-7 -103 0
-6 -105 0
-6 -102 0
-8 -103 0
-8 -105 0
-7 -101 0
-8 -120 0
-6 -119 0
-7 -118 0
-6 -116 0
-8 -118 0
-7 -117 0
-7 -120 0
-6 -117 0
-8 -116 0
-9 -116 0
-6 -120 0
-9 -120 0
-10 -132 0
-6 -134 0
-10 -131 0
-8 -132 0
-7 -131 0
-10 -133 0
-8 -135 0
-6 -131 0
-7 -133 0
-6 -135 0
-10 -135 0
-6 -133 0
-6 -147 0
-7 -150 0
-6 -148 0
-6 -149 0
-10 -149 0
-7 -148 0
-9 -147 0
-8 -147 0
-8 -149 0
-10 -146 0
-7 -149 0
-6 -146 0
-10 -158 0
-6 -160 0
-6 -159 0
-8 -158 0
-8 -156 0
-9 -159 0
-9 -160 0
-10 -160 0
-6 -156 0
-7 -158 0
-6 -157 0
-8 -159 0
-7 -173 0
-10 -173 0
-6 -171 0
-6 -174 0
-9 -171 0
-8 -174 0
-7 -174 0
-9 -172 0
-10 -171 0
-10 -174 0
-10 -172 0
-9 -174 0
-7 -184 0
-9 -185 0
-7 -182 0
-7 -183 0
-10 -181 0
-7 -181 0
-6 -183 0
-7 -185 0
-10 -183 0
-9 -183 0
-8 -184 0
-10 -182 0
-12 -26 0
-14 -30 0
-15 -30 0
-14 -27 0
-15 -29 0
-13 -26 0
-11 -27 0
-13 -27 0
-13 -29 0
-15 -26 0
-11 -29 0
-12 -27 0
-12 -33 0
-13 -34 0
-12 -32 0
-15 -33 0
-14 -31 0
-13 -33 0
-13 -31 0
-14 -34 0
-15 -34 0
-13 -35 0
-14 -32 0
-11 -33 0
-14 -49 0
-13 -50 0
-15 -50 0
-15 -49 0
-11 -49 0
-12 -49 0
-12 -50 0
-15 -48 0
-15 -46 0
-11 -47 0
-11 -50 0
-12 -48 0
-15 -75 0
-15 -73 0
-12 -75 0
-14 -75 0
-12 -74 0
-12 -72 0
-15 -74 0
-13 -71 0
-14 -71 0
-14 -72 0
-11 -73 0
-14 -74 0
-13 -95 0
-13 -92 0
-12 -94 0
-15 -91 0
-12 -93 0
-11 -95 0
-12 -91 0
-11 -93 0
-14 -91 0
-13 -93 0
-14 -95 0
-14 -93 0
-13 -111 0
-15 -114 0
-12 -113 0
-14 -112 0
-12 -115 0
-14 -114 0
-11 -115 0
-11 -113 0
-12 -112 0
-11 -114 0
-15 -111 0
-13 -112 0
-12 -132 0
-13 -131 0
-15 -135 0
-12 -133 0
-14 -133 0
-11 -133 0
-13 -133 0
-13 -134 0
-13 -135 0
-14 -135 0
-15 -134 0
-14 -134 0
-12 -169 0
-11 -166 0
-11 -170 0
-13 -170 0
-14 -168 0
-15 -169 0
-12 -170 0
-13 -169 0
-13 -168 0
-14 -167 0
-15 -170 0
-15 -167 0
-11 -182 0
-13 -184 0
-15 -181 0
-13 -183 0
-11 -184 0
-12 -182 0
-15 -185 0
-14 -182 0
-12 -181 0
-13 -182 0
-15 -184 0
-12 -184 0
-17 -35 0
-19 -31 0
-18 -33 0
-18 -31 0
-19 -35 0
-20 -31 0
-18 -35 0
-16 -33 0
-19 -33 0
-17 -32 0
-20 -33 0
-16 -31 0
-19 -41 0
-18 -44 0
-17 -43 0
-18 -41 0
-16 -41 0
-17 -44 0
-16 -45 0
-19 -42 0
-19 -45 0
-19 -43 0
-20 -41 0
-18 -42 0
-20 -50 0
-20 -49 0
-18 -47 0
-18 -46 0
-16 -46 0
-18 -50 0
-17 -50 0
-20 -47 0
-19 -50 0
-19 -48 0
-16 -49 0
-17 -48 0
-19 -57 0
-20 -57 0
-20 -56 0
-17 -57 0
-18 -59 0
-16 -60 0
-16 -58 0
-18 -57 0
-20 -59 0
-18 -56 0
-19 -56 0
-19 -60 0
-19 -79 0
-19 -77 0
-16 -76 0
-20 -76 0
-18 -76 0
-19 -80 0
-16 -78 0
-20 -78 0
-20 -77 0
-17 -78 0
-17 -80 0
-16 -80 0
-19 -84 0
-18 -82 0
-20 -84 0
-19 -85 0
-20 -81 0
-18 -84 0
-18 -83 0
-17 -84 0
-18 -81 0
-19 -82 0
-16 -82 0
-16 -84 0
-17 -96 0
-17 -98 0
-18 -96 0
-17 -100 0
-17 -97 0
-18 -98 0
-19 -100 0
-20 -100 0
-16 -97 0
-20 -97 0
-18 -99 0
-20 -98 0
-18 -110 0
-19 -108 0
-16 -107 0
-16 -110 0
-18 -107 0
-17 -107 0
-16 -108 0
-17 -109 0
-17 -108 0
-16 -106 0
-18 -106 0
-20 -108 0
-20 -119 0
-20 -116 0
-17 -118 0
-20 -118 0
-16 -118 0
-18 -116 0
-17 -120 0
-18 -118 0
-20 -120 0
-19 -117 0
-19 -118 0
-18 -117 0
-18 -132 0
-16 -133 0
-17 -134 0
-16 -131 0
-17 -135 0
-17 -131 0
-20 -132 0
-18 -135 0
-18 -134 0
-16 -134 0
-17 -133 0
-18 -133 0
-18 -155 0
-20 -155 0
-18 -152 0
-18 -151 0
-20 -151 0
-20 -154 0
-20 -153 0
-17 -154 0
-17 -152 0
-16 -153 0
-20 -152 0
-17 -153 0
-16 -184 0
-16 -183 0
-20 -181 0
-20 -183 0
-16 -181 0
-18 -184 0
-17 -185 0
-20 -185 0
-20 -184 0
-19 -184 0
-18 -182 0
-19 -181 0
-17 -190 0
-20 -186 0
-16 -189 0
-19 -188 0
-19 -186 0
-20 -189 0
-16 -186 0
-17 -186 0
-20 -190 0
-18 -190 0
-18 -188 0
-20 -187 0
-16 -195 0
-19 -195 0
-18 -194 0
-18 -191 0
-18 -192 0
-16 -194 0
-17 -192 0
-20 -192 0
-19 -191 0
-17 -191 0
-17 -194 0
-20 -191 0
-23 -27 0
-21 -27 0
-22 -28 0
-23 -29 0
-21 -29 0
-24 -27 0
-24 -29 0
-24 -26 0
-25 -28 0
-21 -26 0
-23 -26 0
-24 -30 0
-24 -35 0
-22 -35 0
-24 -32 0
-22 -31 0
-23 -35 0
-25 -33 0
-23 -34 0
-21 -34 0
-21 -32 0
-23 -33 0
-24 -31 0
-25 -31 0
-21 -64 0
-25 -63 0
-22 -65 0
-22 -61 0
-24 -64 0
-23 -61 0
-21 -62 0
-25 -61 0
-22 -64 0
-21 -63 0
-25 -64 0
-21 -65 0
-24 -68 0
-23 -67 0
-22 -68 0
-25 -69 0
-21 -66 0
-22 -70 0
-23 -69 0
-21 -70 0
-22 -66 0
-25 -66 0
-23 -70 0
-25 -67 0
-22 -120 0
-22 -116 0
-21 -117 0
-22 -118 0
-24 -117 0
-25 -119 0
-21 -118 0
-24 -120 0
-24 -119 0
-22 -117 0
-21 -116 0
-23 -119 0
-21 -128 0
-24 -130 0
-24 -129 0
-23 -128 0
-22 -129 0
-25 -130 0
-24 -126 0
-23 -127 0
-22 -130 0
-24 -128 0
-23 -130 0
-25 -126 0
-25 -145 0
-22 -144 0
-23 -145 0
-22 -145 0
-24 -145 0
-23 -143 0
-24 -143 0
-25 -144 0
-21 -144 0
-21 -145 0
-25 -143 0
-21 -141 0
-23 -150 0
-21 -149 0
-25 -148 0
-25 -149 0
-24 -148 0
-24 -150 0
-24 -149 0
-22 -148 0
-23 -146 0
-22 -149 0
-23 -147 0
-21 -150 0
-25 -197 0
-23 -200 0
-24 -200 0
-21 -200 0
-24 -198 0
-21 -198 0
-22 -198 0
-23 -199 0
-25 -196 0
-25 -199 0
-21 -199 0
-23 -196 0
-28 -67 0
-27 -68 0
-29 -68 0
-30 -66 0
-28 -66 0
-28 -68 0
-30 -70 0
-29 -70 0
-29 -69 0
-26 -68 0
-27 -70 0
-28 -70 0
-29 -91 0
-29 -95 0
-28 -95 0
-29 -94 0
-29 -93 0
-30 -92 0
-30 -94 0
-27 -94 0
-26 -94 0
-29 -92 0
-30 -93 0
-27 -91 0
-29 -107 0
-30 -109 0
-26 -106 0
-26 -107 0
-30 -110 0
-26 -109 0
-30 -106 0
-29 -106 0
-27 -107 0
-29 -109 0
-26 -108 0
-28 -106 0
-30 -119 0
-26 -116 0
-26 -120 0
-28 -120 0
-29 -116 0
-29 -117 0
-29 -119 0
-26 -117 0
-29 -118 0
-30 -116 0
-27 -118 0
-27 -117 0
-30 -121 0
-27 -121 0
-27 -122 0
-28 -125 0
-27 -124 0
-26 -122 0
-28 -123 0
-29 -124 0
-29 -125 0
-30 -125 0
-28 -124 0
-26 -124 0
-28 -148 0
-26 -150 0
-30 -147 0
-29 -146 0
-26 -149 0
-30 -149 0
-27 -147 0
-27 -150 0
-28 -146 0
-28 -147 0
-29 -148 0
-27 -146 0
-28 -159 0
-26 -160 0
-26 -159 0
-27 -157 0
-28 -157 0
-30 -160 0
-30 -159 0
-28 -156 0
-29 -157 0
-28 -160 0
-27 -160 0
-29 -156 0
-28 -193 0
-28 -195 0
-28 -192 0
-29 -194 0
-26 -192 0
-29 -192 0
-27 -191 0
-27 -193 0
-26 -193 0
-30 -191 0
-29 -193 0
-26 -194 0
-35 -44 0
-32 -43 0
-32 -42 0
-31 -43 0
-33 -44 0
-34 -43 0
-32 -45 0
-31 -41 0
-31 -42 0
-34 -42 0
-34 -45 0
-35 -45 0
-32 -46 0
-34 -48 0
-34 -46 0
-31 -48 0
-34 -50 0
-31 -46 0
-35 -47 0
-33 -47 0
-32 -50 0
-33 -49 0
-31 -47 0
-35 -48 0
-34 -70 0
-35 -66 0
-31 -68 0
-33 -66 0
-35 -67 0
-32 -66 0
-33 -67 0
-32 -70 0
-33 -69 0
-35 -68 0
-32 -69 0
-34 -68 0
-34 -110 0
-33 -106 0
-33 -110 0
-31 -106 0
-35 -108 0
-31 -109 0
-33 -107 0
-35 -106 0
-35 -109 0
-34 -107 0
-31 -108 0
-34 -109 0
-31 -118 0
-33 -117 0
-34 -119 0
-31 -116 0
-35 -118 0
-32 -120 0
-32 -117 0
-34 -116 0
-31 -117 0
-35 -116 0
-35 -117 0
-34 -117 0
-34 -133 0
-31 -134 0
-34 -135 0
-33 -133 0
-34 -131 0
-35 -135 0
-31 -135 0
-32 -134 0
-32 -135 0
-32 -132 0
-35 -133 0
-33 -135 0
-32 -174 0
-35 -173 0
-31 -175 0
-35 -175 0
-33 -172 0
-34 -172 0
-32 -175 0
-35 -172 0
-33 -173 0
-35 -171 0
-31 -174 0
-34 -175 0
-35 -176 0
-34 -177 0
-32 -176 0
-32 -178 0
-33 -176 0
-33 -179 0
-32 -177 0
-35 -177 0
-31 -176 0
-32 -179 0
-34 -180 0
-34 -179 0
-32 -189 0
-35 -187 0
-35 -186 0
-31 -187 0
-33 -188 0
-33 -189 0
-32 -190 0
-34 -186 0
-35 -188 0
-34 -187 0
-31 -188 0
-34 -189 0
-39 -48 0
-38 -47 0
-37 -48 0
-38 -49 0
-39 -50 0
-36 -47 0
-38 -50 0
-39 -46 0
-39 -47 0
-37 -50 0
-38 -48 0
-39 -49 0
-37 -62 0
-39 -62 0
-39 -63 0
-39 -64 0
-38 -62 0
-40 -63 0
-40 -62 0
-39 -61 0
-36 -64 0
-40 -64 0
-36 -61 0
-37 -65 0
-39 -96 0
-37 -100 0
-38 -100 0
-39 -97 0
-36 -99 0
-36 -100 0
-40 -99 0
-40 -100 0
-36 -98 0
-38 -99 0
-40 -97 0
-38 -96 0
-39 -131 0
-40 -132 0
-38 -134 0
-36 -131 0
-40 -131 0
-38 -133 0
-37 -135 0
-36 -132 0
-38 -135 0
-36 -135 0
-37 -131 0
-39 -133 0
-37 -140 0
-40 -140 0
-39 -136 0
-40 -137 0
-36 -140 0
-38 -137 0
-39 -138 0
-37 -137 0
-36 -138 0
-39 -139 0
-38 -138 0
-37 -136 0
-40 -150 0
-40 -147 0
-37 -148 0
-39 -149 0
-36 -148 0
-37 -150 0
-37 -149 0
-36 -150 0
-38 -149 0
-40 -149 0
-37 -146 0
-36 -146 0
-38 -168 0
-39 -167 0
-36 -170 0
-37 -169 0
-40 -167 0
-40 -166 0
-39 -169 0
-38 -169 0
-37 -168 0
-40 -169 0
-36 -166 0
-39 -166 0
-39 -171 0
-37 -171 0
-37 -173 0
-40 -175 0
-36 -172 0
-38 -175 0
-38 -171 0
-39 -175 0
-38 -174 0
-36 -175 0
-38 -173 0
-40 -172 0
-39 -194 0
-37 -191 0
-36 -195 0
-38 -193 0
-36 -193 0
-36 -191 0
-40 -192 0
-39 -193 0
-40 -195 0
-40 -193 0
-37 -193 0
-39 -192 0
-38 -196 0
-40 -200 0
-36 -200 0
-37 -196 0
-37 -200 0
-38 -198 0
-39 -196 0
-36 -198 0
-40 -196 0
-38 -200 0
-39 -199 0
-39 -200 0
-44 -74 0
-43 -74 0
-45 -75 0
-42 -73 0
-42 -71 0
-44 -72 0
-42 -74 0
-43 -72 0
-45 -74 0
-42 -75 0
-44 -71 0
-45 -71 0
-44 -123 0
-45 -123 0
-44 -125 0
-42 -123 0
-41 -121 0
-45 -121 0
-41 -125 0
-43 -121 0
-43 -124 0
-41 -124 0
-43 -125 0
-43 -122 0
-43 -132 0
-43 -131 0
-41 -134 0
-43 -134 0
-44 -135 0
-45 -132 0
-45 -131 0
-41 -131 0
-42 -134 0
-44 -133 0
-41 -132 0
-42 -133 0
-44 -141 0
-43 -141 0
-41 -142 0
-43 -145 0
-41 -141 0
-43 -142 0
-42 -143 0
-44 -143 0
-44 -144 0
-45 -144 0
-45 -143 0
-42 -141 0
-44 -151 0
-44 -155 0
-41 -151 0
-45 -151 0
-43 -155 0
-43 -153 0
-44 -153 0
-45 -154 0
-42 -151 0
-45 -153 0
-42 -153 0
-41 -153 0
-42 -174 0
-42 -172 0
-44 -173 0
-41 -174 0
-44 -174 0
-42 -173 0
-43 -174 0
-45 -172 0
-42 -171 0
-43 -171 0
-44 -172 0
-45 -173 0
-42 -178 0
-42 -177 0
-45 -180 0
-45 -177 0
-43 -180 0
-45 -176 0
-44 -178 0
-43 -177 0
-41 -177 0
-42 -179 0
-41 -176 0
-44 -180 0
-41 -182 0
-42 -182 0
-42 -184 0
-43 -182 0
-43 -185 0
-44 -185 0
-45 -181 0
-44 -184 0
-43 -183 0
-41 -181 0
-43 -181 0
-45 -185 0
-45 -191 0
-44 -195 0
-42 -193 0
-43 -195 0
-41 -193 0
-41 -191 0
-43 -192 0
-45 -194 0
-42 -194 0
-41 -192 0
-44 -194 0
-42 -195 0
-47 -54 0
-48 -54 0
-48 -51 0
-46 -53 0
-50 -54 0
-49 -51 0
-47 -53 0
-46 -55 0
-50 -55 0
-48 -53 0
-46 -51 0
-50 -51 0
-46 -59 0
-48 -56 0
-48 -58 0
-49 -57 0
-50 -57 0
-46 -58 0
-46 -57 0
-50 -58 0
-50 -59 0
-48 -59 0
-50 -60 0
-46 -56 0
-47 -64 0
-50 -64 0
-50 -62 0
-46 -65 0
-46 -64 0
-48 -64 0
-48 -61 0
-46 -63 0
-49 -65 0
-50 -63 0
-46 -61 0
-49 -61 0
-46 -84 0
-49 -81 0
-47 -82 0
-50 -84 0
-47 -85 0
-46 -81 0
-49 -84 0
-49 -82 0
-49 -85 0
-48 -84 0
-50 -85 0
-48 -83 0
-47 -98 0
-46 -97 0
-48 -100 0
-47 -99 0
-47 -96 0
-48 -99 0
-50 -97 0
-46 -100 0
-48 -98 0
-48 -97 0
-46 -98 0
-46 -96 0
-49 -102 0
-47 -105 0
-50 -105 0
-49 -105 0
-50 -102 0
-48 -101 0
-48 -102 0
-46 -105 0
-48 -104 0
-48 -105 0
-46 -104 0
-47 -101 0
-46 -114 0
-47 -111 0
-48 -111 0
-47 -115 0
-50 -112 0
-47 -113 0
-46 -115 0
-48 -113 0
-47 -114 0
-46 -112 0
-48 -114 0
-49 -113 0
-46 -119 0
-47 -117 0
-47 -120 0
-49 -118 0
-50 -119 0
-50 -117 0
-48 -119 0
-49 -117 0
-48 -120 0
-46 -118 0
-49 -116 0
-47 -118 0
-46 -139 0
-46 -137 0
-47 -137 0
-50 -137 0
-47 -139 0
-49 -138 0
-49 -140 0
-50 -138 0
-50 -140 0
-48 -136 0
-48 -139 0
-47 -140 0
-49 -154 0
-50 -152 0
-48 -153 0
-50 -153 0
-47 -154 0
-46 -154 0
-48 -152 0
-46 -153 0
-48 -155 0
-47 -153 0
-49 -152 0
-50 -154 0
-46 -163 0
-50 -165 0
-46 -165 0
-49 -165 0
-50 -162 0
-49 -162 0
-48 -163 0
-48 -161 0
-48 -162 0
-50 -163 0
-46 -161 0
-50 -164 0
-49 -177 0
-47 -179 0
-46 -180 0
-47 -177 0
-47 -176 0
-46 -178 0
-50 -177 0
-49 -178 0
-46 -177 0
-50 -176 0
-46 -176 0
-47 -178 0
-46 -194 0
-50 -192 0
-46 -192 0
-50 -191 0
-49 -191 0
-47 -193 0
-50 -195 0
-47 -192 0
-49 -194 0
-48 -194 0
-46 -195 0
-50 -194 0
-51 -75 0
-51 -73 0
-52 -74 0
-52 -72 0
-54 -72 0
-53 -71 0
-52 -73 0
-51 -71 0
-54 -71 0
-53 -74 0
-51 -74 0
-51 -72 0
-52 -76 0
-54 -76 0
-52 -80 0
-55 -77 0
-54 -80 0
-55 -76 0
-55 -80 0
-53 -79 0
-51 -79 0
-51 -78 0
-52 -77 0
-55 -79 0
-51 -85 0
-54 -81 0
-54 -83 0
-54 -82 0
-52 -85 0
-55 -84 0
-53 -85 0
-55 -81 0
-51 -83 0
-52 -83 0
-55 -83 0
-54 -85 0
-54 -93 0
-55 -95 0
-54 -92 0
-52 -92 0
-53 -91 0
-55 -93 0
-51 -95 0
-52 -93 0
-55 -94 0
-54 -95 0
-51 -91 0
-54 -91 0
-52 -114 0
-51 -111 0
-52 -115 0
-51 -115 0
-53 -115 0
-53 -112 0
-52 -111 0
-54 -115 0
-54 -113 0
-51 -112 0
-55 -112 0
-52 -112 0
-54 -125 0
-53 -125 0
-53 -123 0
-51 -124 0
-52 -122 0
-51 -125 0
-55 -125 0
-51 -121 0
-52 -124 0
-51 -122 0
-52 -123 0
-53 -121 0
-53 -130 0
-51 -127 0
-55 -129 0
-55 -130 0
-53 -126 0
-51 -130 0
-52 -129 0
-52 -130 0
-54 -130 0
-51 -128 0
-55 -127 0
-53 -129 0
-55 -136 0
-54 -138 0
-53 -137 0
-51 -140 0
-54 -140 0
-52 -138 0
-53 -138 0
-53 -136 0
-54 -136 0
-51 -137 0
-52 -136 0
-53 -139 0
-54 -150 0
-54 -146 0
-54 -148 0
-54 -149 0
-52 -147 0
-55 -146 0
-51 -146 0
-51 -148 0
-55 -147 0
-52 -150 0
-55 -149 0
-53 -146 0
-51 -164 0
-54 -165 0
-53 -162 0
-55 -163 0
-51 -163 0
-55 -164 0
-52 -165 0
-55 -165 0
-55 -161 0
-54 -164 0
-55 -162 0
-52 -164 0
-52 -168 0
-55 -166 0
-54 -168 0
-51 -166 0
-51 -169 0
-52 -167 0
-51 -167 0
-51 -168 0
-53 -167 0
-53 -166 0
-55 -169 0
-52 -169 0
-53 -179 0
-51 -179 0
-52 -176 0
-52 -180 0
-53 -177 0
-52 -177 0
-54 -177 0
-53 -176 0
-51 -178 0
-55 -177 0
-52 -179 0
-52 -178 0
-55 -187 0
-55 -186 0
-52 -190 0
-52 -188 0
-53 -187 0
-51 -190 0
-55 -190 0
-54 -186 0
-52 -189 0
-53 -188 0
-55 -188 0
-52 -187 0
-60 -74 0
-59 -75 0
-57 -74 0
-57 -73 0
-58 -74 0
-59 -73 0
-59 -74 0
-56 -74 0
-57 -71 0
-56 -71 0
-60 -72 0
-59 -71 0
-57 -78 0
-56 -80 0
-56 -79 0
-56 -76 0
-59 -80 0
-57 -79 0
-58 -76 0
-60 -78 0
-60 -79 0
-59 -77 0
-58 -78 0
-57 -76 0
-59 -93 0
-60 -92 0
-56 -91 0
-57 -93 0
-60 -94 0
-56 -93 0
-58 -94 0
-60 -93 0
-59 -91 0
-57 -92 0
-58 -91 0
-57 -95 0
-57 -115 0
-56 -111 0
-59 -114 0
-57 -112 0
-60 -111 0
-58 -114 0
-59 -112 0
-56 -113 0
-58 -113 0
-56 -114 0
-57 -113 0
-58 -112 0
-60 -131 0
-60 -135 0
-58 -131 0
-56 -131 0
-59 -131 0
-58 -134 0
-57 -131 0
-56 -133 0
-56 -135 0
-57 -132 0
-58 -133 0
-57 -133 0
-60 -138 0
-58 -138 0
-56 -140 0
-56 -139 0
-58 -137 0
-59 -137 0
-60 -136 0
-60 -137 0
-59 -138 0
-59 -140 0
-57 -140 0
-57 -136 0
-59 -143 0
-58 -145 0
-58 -141 0
-57 -144 0
-57 -141 0
-58 -143 0
-59 -144 0
-56 -141 0
-60 -141 0
-60 -145 0
-57 -145 0
-59 -141 0
-57 -157 0
-59 -160 0
-56 -159 0
-57 -159 0
-59 -159 0
-56 -158 0
-57 -156 0
-56 -160 0
-60 -159 0
-56 -156 0
-60 -157 0
-58 -159 0
-59 -169 0
-59 -168 0
-56 -168 0
-56 -170 0
-60 -169 0
-57 -169 0
-58 -169 0
-59 -167 0
-60 -168 0
-56 -169 0
-56 -167 0
-59 -170 0
-62 -71 0
-62 -75 0
-61 -71 0
-63 -72 0
-61 -75 0
-65 -73 0
-63 -75 0
-64 -73 0
-64 -71 0
-65 -74 0
-64 -74 0
-63 -73 0
-61 -94 0
-65 -95 0
-61 -91 0
-63 -94 0
-65 -94 0
-65 -93 0
-63 -91 0
-65 -91 0
-64 -95 0
-65 -92 0
-64 -91 0
-62 -95 0
-61 -98 0
-63 -100 0
-65 -96 0
-64 -100 0
-61 -96 0
-63 -97 0
-65 -99 0
-64 -96 0
-64 -99 0
-64 -97 0
-62 -98 0
-62 -99 0
-65 -102 0
-62 -104 0
-62 -103 0
-62 -101 0
-62 -102 0
-64 -101 0
-63 -103 0
-65 -101 0
-64 -103 0
-61 -101 0
-64 -105 0
-63 -105 0
-63 -116 0
-65 -117 0
-65 -119 0
-62 -120 0
-62 -117 0
-61 -117 0
-63 -118 0
-61 -118 0
-63 -117 0
-65 -116 0
-65 -118 0
-63 -119 0
-64 -137 0
-61 -139 0
-63 -137 0
-65 -138 0
-61 -138 0
-62 -138 0
-64 -136 0
-62 -137 0
-61 -140 0
-61 -137 0
-62 -139 0
-64 -140 0
-65 -150 0
-64 -146 0
-61 -147 0
-64 -147 0
-64 -148 0
-61 -148 0
-63 -148 0
-63 -147 0
-62 -148 0
-65 -147 0
-64 -149 0
-65 -149 0
-67 -89 0
-70 -88 0
-70 -86 0
-67 -90 0
-68 -86 0
-68 -88 0
-66 -90 0
-69 -89 0
-66 -89 0
-66 -87 0
-68 -87 0
-70 -89 0
-68 -108 0
-69 -108 0
-67 -107 0
-68 -106 0
-66 -109 0
-70 -110 0
-70 -106 0
-67 -109 0
-66 -108 0
-66 -106 0
-68 -110 0
-70 -108 0
-68 -113 0
-70 -114 0
-67 -111 0
-70 -115 0
-68 -115 0
-70 -111 0
-68 -114 0
-68 -111 0
-66 -111 0
-69 -113 0
-67 -113 0
-66 -113 0
-69 -168 0
-68 -167 0
-70 -170 0
-67 -166 0
-69 -167 0
-70 -169 0
-68 -166 0
-69 -166 0
-67 -167 0
-67 -168 0
-68 -168 0
-66 -168 0
-67 -184 0
-70 -182 0
-70 -183 0
-66 -182 0
-66 -185 0
-70 -181 0
-67 -185 0
-68 -185 0
-66 -184 0
-69 -185 0
-68 -182 0
-66 -183 0
-68 -190 0
-67 -190 0
-67 -189 0
-66 -188 0
-66 -189 0
-66 -187 0
-67 -186 0
-67 -188 0
-69 -189 0
-70 -188 0
-70 -190 0
-70 -186 0
-69 -193 0
-66 -195 0
-66 -193 0
-66 -191 0
-68 -194 0
-70 -191 0
-69 -194 0
-67 -192 0
-70 -192 0
-70 -194 0
-67 -195 0
-69 -195 0
-75 -125 0
-72 -125 0
-72 -123 0
-72 -124 0
-73 -122 0
-75 -123 0
-74 -123 0
-71 -122 0
-71 -123 0
-75 -124 0
-74 -122 0
-71 -125 0
-73 -138 0
-73 -136 0
-74 -137 0
-71 -140 0
-73 -137 0
-73 -139 0
-75 -138 0
-75 -139 0
-71 -139 0
-75 -137 0
-72 -137 0
-72 -136 0
-74 -144 0
-72 -141 0
-71 -143 0
-71 -144 0
-72 -145 0
-72 -144 0
-74 -143 0
-72 -142 0
-73 -143 0
-75 -143 0
-73 -142 0
-73 -144 0
-74 -156 0
-71 -156 0
-72 -160 0
-74 -160 0
-71 -160 0
-73 -160 0
-71 -157 0
-75 -160 0
-72 -157 0
-75 -159 0
-73 -158 0
-74 -157 0
-74 -171 0
-72 -175 0
-75 -175 0
-73 -174 0
-73 -173 0
-72 -171 0
-75 -171 0
-73 -171 0
-72 -173 0
-71 -171 0
-74 -175 0
-72 -174 0
-80 -101 0
-78 -105 0
-77 -102 0
-77 -104 0
-77 -105 0
-78 -102 0
-80 -102 0
-78 -101 0
-78 -103 0
-78 -104 0
-79 -102 0
-76 -105 0
-78 -106 0
-80 -107 0
-78 -110 0
-76 -108 0
-79 -106 0
-80 -106 0
-79 -107 0
-76 -110 0
-78 -109 0
-80 -110 0
-77 -108 0
-80 -109 0
-77 -116 0
-79 -119 0
-76 -120 0
-80 -117 0
-77 -120 0
-76 -117 0
-76 -116 0
-78 -116 0
-77 -117 0
-80 -120 0
-79 -118 0
-78 -120 0
-80 -169 0
-77 -169 0
-80 -170 0
-78 -170 0
-76 -167 0
-79 -169 0
-79 -170 0
-76 -168 0
-79 -167 0
-76 -169 0
-76 -170 0
-77 -168 0
-78 -186 0
-80 -190 0
-80 -186 0
-77 -190 0
-76 -190 0
-76 -189 0
-80 -189 0
-79 -188 0
-77 -189 0
-77 -187 0
-76 -187 0
-79 -186 0
-84 -104 0
-81 -102 0
-85 -103 0
-82 -103 0
-81 -104 0
-85 -101 0
-83 -105 0
-81 -103 0
-81 -105 0
-82 -105 0
-82 -104 0
-83 -102 0
-84 -115 0
-81 -114 0
-83 -113 0
-81 -113 0
-85 -115 0
-85 -112 0
-81 -115 0
-83 -114 0
-83 -115 0
-82 -111 0
-83 -111 0
-82 -112 0
-83 -128 0
-81 -130 0
-82 -127 0
-85 -129 0
-83 -126 0
-84 -127 0
-81 -127 0
-82 -126 0
-85 -128 0
-84 -126 0
-81 -126 0
-83 -127 0
-83 -131 0
-81 -131 0
-85 -135 0
-85 -132 0
-82 -135 0
-84 -134 0
-84 -135 0
-83 -132 0
-81 -134 0
-81 -135 0
-82 -134 0
-81 -132 0
-82 -143 0
-81 -145 0
-81 -143 0
-81 -144 0
-83 -145 0
-85 -141 0
-82 -142 0
-84 -142 0
-82 -145 0
-84 -145 0
-85 -145 0
-83 -143 0
-85 -162 0
-84 -161 0
-81 -162 0
-83 -162 0
-83 -164 0
-81 -163 0
-82 -162 0
-84 -164 0
-82 -165 0
-84 -163 0
-83 -163 0
-82 -161 0
-83 -182 0
-84 -184 0
-84 -183 0
-81 -183 0
-83 -181 0
-82 -184 0
-81 -181 0
-81 -184 0
-85 -183 0
-84 -185 0
-84 -182 0
-85 -182 0
-82 -188 0
-85 -188 0
-81 -186 0
-82 -189 0
-83 -188 0
-83 -190 0
-84 -188 0
-82 -187 0
-84 -190 0
-84 -189 0
-81 -188 0
-83 -186 0
-88 -104 0
-89 -102 0
-87 -105 0
-89 -101 0
-90 -105 0
-89 -103 0
-87 -102 0
-90 -104 0
-86 -101 0
-90 -103 0
-90 -101 0
-89 -105 0
-86 -113 0
-87 -115 0
-89 -115 0
-88 -115 0
-88 -111 0
-86 -112 0
-87 -113 0
-86 -115 0
-89 -111 0
-90 -114 0
-87 -111 0
-86 -111 0
-89 -139 0
-86 -136 0
-89 -138 0
-86 -139 0
-88 -139 0
-90 -140 0
-87 -137 0
-88 -136 0
-88 -140 0
-90 -139 0
-90 -138 0
-86 -140 0
-87 -159 0
-87 -157 0
-88 -158 0
-90 -159 0
-86 -157 0
-86 -158 0
-90 -160 0
-87 -160 0
-88 -159 0
-89 -157 0
-88 -157 0
-90 -157 0
-89 -175 0
-87 -172 0
-89 -172 0
-87 -173 0
-86 -174 0
-89 -174 0
-88 -173 0
-86 -175 0
-90 -174 0
-90 -173 0
-88 -174 0
-89 -173 0
-90 -183 0
-89 -185 0
-86 -183 0
-88 -185 0
-88 -182 0
-90 -185 0
-87 -185 0
-89 -181 0
-89 -183 0
-86 -185 0
-86 -182 0
-88 -181 0
-92 -112 0
-95 -112 0
-91 -115 0
-92 -113 0
-94 -114 0
-93 -115 0
-92 -114 0
-91 -113 0
-92 -111 0
-93 -114 0
-93 -111 0
-93 -112 0
-95 -129 0
-92 -127 0
-91 -128 0
-93 -128 0
-93 -129 0
-95 -130 0
-95 -128 0
-94 -128 0
-91 -129 0
-92 -126 0
-92 -129 0
-94 -129 0
-95 -136 0
-94 -140 0
-93 -136 0
-93 -137 0
-91 -136 0
-92 -137 0
-94 -139 0
-95 -138 0
-94 -138 0
-92 -139 0
-95 -139 0
-91 -137 0
-91 -197 0
-95 -199 0
-92 -198 0
-95 -200 0
-92 -199 0
-93 -200 0
-94 -197 0
-92 -196 0
-95 -198 0
-91 -196 0
-92 -197 0
-93 -197 0
-96 -122 0
-100 -125 0
-99 -125 0
-99 -121 0
-100 -121 0
-99 -124 0
-97 -121 0
-100 -124 0
-100 -122 0
-96 -124 0
-98 -121 0
-97 -123 0
-97 -154 0
-99 -153 0
-97 -152 0
-100 -153 0
-100 -154 0
-98 -151 0
-96 -152 0
-99 -154 0
-100 -155 0
-96 -151 0
-97 -151 0
-98 -153 0
-97 -172 0
-97 -173 0
-98 -171 0
-99 -172 0
-98 -175 0
-99 -171 0
-98 -173 0
-96 -173 0
-99 -175 0
-100 -175 0
-100 -173 0
-96 -174 0
-99 -182 0
-96 -182 0
-100 -183 0
-96 -185 0
-100 -185 0
-99 -185 0
-97 -185 0
-98 -184 0
-97 -184 0
-99 -184 0
-97 -183 0
-100 -182 0
-104 -111 0
-101 -115 0
-102 -114 0
-104 -114 0
-101 -114 0
-104 -112 0
-102 -115 0
-105 -114 0
-105 -112 0
-101 -113 0
-104 -115 0
-101 -112 0
-104 -124 0
-102 -125 0
-101 -122 0
-102 -121 0
-102 -124 0
-103 -124 0
-103 -122 0
-101 -125 0
-103 -123 0
-103 -121 0
-103 -125 0
-105 -121 0
-103 -147 0
-104 -149 0
-102 -149 0
-105 -148 0
-101 -146 0
-102 -150 0
-101 -150 0
-104 -148 0
-101 -149 0
-102 -148 0
-105 -150 0
-101 -147 0
-104 -158 0
-101 -160 0
-102 -156 0
-105 -160 0
-105 -156 0
-103 -156 0
-102 -158 0
-105 -157 0
-102 -159 0
-101 -157 0
-101 -158 0
-102 -160 0
-101 -164 0
-101 -161 0
-103 -162 0
-104 -162 0
-104 -161 0
-101 -165 0
-101 -163 0
-103 -165 0
-101 -162 0
-104 -165 0
-105 -165 0
-102 -164 0
-101 -174 0
-103 -171 0
-102 -172 0
-101 -173 0
-105 -171 0
-101 -175 0
-102 -174 0
-104 -171 0
-105 -173 0
-105 -172 0
-101 -171 0
-102 -173 0
-104 -185 0
-101 -182 0
-104 -182 0
-103 -184 0
-103 -181 0
-103 -185 0
-101 -185 0
-105 -185 0
-101 -181 0
-105 -181 0
-101 -184 0
-102 -183 0
-108 -129 0
-108 -126 0
-108 -128 0
-109 -129 0
-110 -127 0
-109 -127 0
-110 -126 0
-110 -129 0
-106 -128 0
-109 -128 0
-106 -130 0
-108 -127 0
-106 -133 0
-107 -135 0
-110 -133 0
-107 -131 0
-110 -134 0
-109 -134 0
-107 -134 0
-107 -132 0
-108 -135 0
-106 -135 0
-110 -135 0
-108 -134 0
-106 -136 0
-109 -139 0
-109 -140 0
-109 -136 0
-108 -136 0
-107 -140 0
-108 -137 0
-108 -140 0
-107 -136 0
-107 -138 0
-106 -139 0
-108 -139 0
-108 -174 0
-106 -173 0
-109 -174 0
-109 -175 0
-106 -174 0
-106 -172 0
-107 -173 0
-108 -172 0
-109 -173 0
-107 -171 0
-110 -174 0
-107 -172 0
-108 -185 0
-110 -181 0
-109 -185 0
-109 -181 0
-106 -182 0
-109 -183 0
-108 -183 0
-109 -182 0
-106 -183 0
-107 -185 0
-107 -182 0
-107 -183 0
-113 -116 0
-115 -119 0
-113 -120 0
-113 -119 0
-111 -118 0
-113 -117 0
-114 -119 0
-112 -116 0
-115 -120 0
-114 -116 0
-112 -119 0
-112 -120 0
-115 -127 0
-114 -130 0
-113 -130 0
-114 -129 0
-111 -130 0
-113 -129 0
-112 -128 0
-115 -130 0
-114 -128 0
-113 -126 0
-111 -127 0
-115 -128 0
-112 -132 0
-112 -133 0
-111 -135 0
-115 -135 0
-114 -132 0
-114 -135 0
-113 -134 0
-113 -131 0
-111 -134 0
-112 -131 0
-115 -134 0
-112 -134 0
-115 -155 0
-111 -151 0
-113 -152 0
-114 -155 0
-111 -153 0
-114 -152 0
-114 -154 0
-111 -154 0
-115 -153 0
-114 -153 0
-115 -152 0
-113 -154 0
-115 -168 0
-112 -169 0
-115 -167 0
-111 -170 0
-112 -166 0
-111 -169 0
-113 -170 0
-113 -166 0
-111 -166 0
-114 -166 0
-114 -168 0
-113 -167 0
-115 -180 0
-115 -179 0
-111 -177 0
-114 -176 0
-113 -176 0
-112 -178 0
-112 -179 0
-113 -177 0
-112 -177 0
-113 -178 0
-113 -179 0
-111 -176 0
-111 -181 0
-114 -183 0
-115 -184 0
-114 -181 0
-111 -183 0
-115 -183 0
-114 -184 0
-113 -181 0
-112 -184 0
-112 -181 0
-113 -184 0
-113 -183 0
-111 -196 0
-112 -199 0
-113 -197 0
-111 -198 0
-111 -199 0
-114 -199 0
-112 -197 0
-113 -199 0
-113 -200 0
-112 -200 0
-111 -197 0
-114 -196 0
-120 -135 0
-119 -132 0
-120 -134 0
-118 -132 0
-116 -133 0
-117 -133 0
-119 -135 0
-117 -135 0
-119 -133 0
-116 -134 0
-118 -131 0
-117 -131 0
-119 -145 0
-120 -144 0
-119 -143 0
-117 -144 0
-118 -142 0
-119 -142 0
-116 -141 0
-118 -145 0
-117 -145 0
-118 -143 0
-119 -144 0
-116 -143 0
-119 -183 0
-119 -184 0
-119 -181 0
-117 -181 0
-118 -185 0
-120 -181 0
-120 -182 0
-119 -182 0
-118 -184 0
-118 -181 0
-120 -183 0
-120 -185 0
-121 -138 0
-122 -139 0
-122 -137 0
-124 -140 0
-121 -136 0
-125 -137 0
-122 -138 0
-124 -138 0
-123 -137 0
-122 -136 0
-121 -140 0
-123 -139 0
-124 -149 0
-122 -147 0
-123 -150 0
-121 -146 0
-121 -149 0
-123 -146 0
-122 -149 0
-122 -150 0
-122 -148 0
-124 -146 0
-122 -146 0
-124 -148 0
-124 -171 0
-121 -171 0
-123 -171 0
-122 -171 0
-125 -174 0
-122 -175 0
-122 -173 0
-125 -171 0
-124 -175 0
-121 -175 0
-123 -172 0
-123 -174 0
-123 -180 0
-125 -179 0
-123 -179 0
-124 -177 0
-122 -179 0
-125 -176 0
-125 -178 0
-123 -177 0
-121 -177 0
-125 -180 0
-123 -178 0
-122 -176 0
-127 -138 0
-129 -138 0
-128 -137 0
-126 -137 0
-129 -137 0
-126 -138 0
-130 -138 0
-129 -140 0
-127 -140 0
-127 -137 0
-130 -137 0
-127 -139 0
-126 -142 0
-128 -143 0
-126 -143 0
-128 -141 0
-126 -145 0
-128 -144 0
-128 -145 0
-129 -141 0
-127 -142 0
-130 -145 0
-130 -142 0
-127 -145 0
-130 -154 0
-127 -153 0
-130 -153 0
-126 -154 0
-127 -155 0
-128 -155 0
-126 -151 0
-128 -153 0
-130 -155 0
-129 -154 0
-130 -151 0
-128 -152 0
-127 -163 0
-129 -164 0
-130 -163 0
-127 -165 0
-130 -165 0
-126 -164 0
-128 -163 0
-127 -161 0
-126 -165 0
-129 -162 0
-129 -165 0
-129 -163 0
-127 -173 0
-129 -175 0
-130 -172 0
-128 -171 0
-130 -173 0
-128 -173 0
-126 -173 0
-130 -171 0
-127 -174 0
-126 -175 0
-126 -174 0
-126 -171 0
-135 -151 0
-132 -154 0
-133 -153 0
-132 -155 0
-134 -153 0
-134 -151 0
-133 -152 0
-131 -151 0
-132 -153 0
-134 -154 0
-135 -152 0
-133 -154 0
-132 -192 0
-135 -194 0
-132 -194 0
-133 -193 0
-134 -191 0
-131 -192 0
-132 -195 0
-134 -195 0
-133 -191 0
-135 -191 0
-135 -192 0
-134 -192 0
-139 -155 0
-136 -155 0
-136 -152 0
-140 -153 0
-139 -153 0
-136 -153 0
-139 -151 0
-137 -154 0
-138 -155 0
-137 -152 0
-140 -155 0
-139 -152 0
-142 -149 0
-144 -148 0
-141 -150 0
-141 -147 0
-145 -149 0
-143 -146 0
-141 -149 0
-141 -148 0
-142 -150 0
-144 -149 0
-142 -146 0
-145 -150 0
-144 -165 0
-141 -165 0
-142 -161 0
-143 -165 0
-142 -165 0
-142 -162 0
-144 -164 0
-145 -165 0
-145 -163 0
-145 -164 0
-144 -163 0
-141 -164 0
-141 -176 0
-143 -177 0
-144 -176 0
-145 -177 0
-144 -178 0
-142 -179 0
-143 -178 0
-143 -180 0
-141 -179 0
-142 -177 0
-145 -179 0
-143 -179 0
-141 -188 0
-143 -186 0
-145 -186 0
-142 -186 0
-144 -187 0
-144 -188 0
-141 -187 0
-144 -190 0
-142 -187 0
-143 -190 0
-141 -189 0
-141 -190 0
-146 -162 0
-146 -163 0
-146 -161 0
-147 -164 0
-148 -161 0
-149 -162 0
-146 -164 0
-150 -162 0
-148 -165 0
-150 -163 0
-150 -165 0
-149 -161 0
-147 -186 0
-147 -188 0
-150 -190 0
-148 -187 0
-149 -187 0
-147 -187 0
-146 -189 0
-148 -186 0
-149 -186 0
-149 -190 0
-150 -187 0
-149 -189 0
-152 -192 0
-151 -193 0
-151 -192 0
-155 -194 0
-155 -192 0
-155 -193 0
-153 -192 0
-151 -191 0
-153 -193 0
-153 -194 0
-154 -191 0
-154 -193 0
-160 -167 0
-156 -168 0
-159 -167 0
-157 -168 0
-159 -166 0
-159 -170 0
-157 -167 0
-156 -167 0
-160 -169 0
-158 -166 0
-158 -170 0
-158 -167 0
-158 -182 0
-156 -185 0
-156 -181 0
-156 -184 0
-158 -184 0
-160 -185 0
-160 -183 0
-157 -185 0
-159 -182 0
-159 -185 0
-159 -181 0
-160 -182 0
-156 -199 0
-159 -198 0
-156 -197 0
-158 -199 0
-156 -196 0
-158 -198 0
-156 -198 0
-159 -196 0
-158 -200 0
-159 -197 0
-157 -199 0
-159 -200 0
-162 -190 0
-163 -188 0
-164 -189 0
-161 -190 0
-163 -187 0
-162 -187 0
-161 -189 0
-163 -190 0
-164 -188 0
-165 -187 0
-162 -188 0
-161 -186 0
-161 -197 0
-164 -196 0
-161 -200 0
-164 -200 0
-162 -197 0
-163 -198 0
-164 -199 0
-162 -199 0
-162 -196 0
-163 -197 0
-163 -200 0
-164 -198 0
-170 -173 0
-168 -175 0
-170 -171 0
-167 -174 0
-169 -173 0
-166 -173 0
-166 -175 0
-166 -171 0
-170 -174 0
-168 -173 0
-168 -172 0
-166 -172 0
-167 -180 0
-166 -179 0
-167 -178 0
-169 -179 0
-166 -180 0
-170 -177 0
-168 -177 0
-169 -180 0
-168 -178 0
-170 -176 0
-169 -176 0
-167 -177 0
-168 -182 0
-169 -183 0
-168 -183 0
-167 -183 0
-170 -185 0
-169 -184 0
-170 -181 0
-169 -181 0
-169 -185 0
-169 -182 0
-170 -182 0
-167 -185 0
-168 -198 0
-167 -198 0
-166 -198 0
-167 -200 0
-170 -199 0
-168 -200 0
-169 -198 0
-170 -197 0
-169 -196 0
-168 -196 0
-166 -196 0
-166 -200 0
-171 -199 0
-174 -198 0
-172 -199 0
-173 -196 0
-171 -196 0
-172 -196 0
-174 -200 0
-175 -200 0
-175 -196 0
-173 -197 0
-172 -198 0
-174 -199 0
-178 -184 0
-176 -182 0
-180 -184 0
-177 -184 0
-177 -181 0
-176 -185 0
-178 -185 0
-176 -183 0
-179 -185 0
-177 -183 0
-178 -182 0
-179 -182 0
-182 -189 0
-181 -186 0
-183 -190 0
-185 -189 0
-181 -190 0
-184 -188 0
-184 -186 0
-182 -187 0
-182 -188 0
-183 -189 0
-181 -187 0
-185 -186 0
-184 -193 0
-183 -193 0
-185 -191 0
-182 -191 0
-182 -192 0
-181 -191 0
-184 -194 0
-185 -192 0
-181 -195 0
-183 -194 0
-182 -195 0
-183 -195 0
-186 -197 0
-187 -199 0
-189 -199 0
-189 -200 0
-186 -199 0
-186 -196 0
-190 -198 0
-190 -200 0
-186 -198 0
-187 -198 0
-189 -196 0
-187 -197 0
-192 -197 0
-194 -197 0
-195 -199 0
-191 -199 0
-195 -200 0
-195 -196 0
-194 -200 0
-192 -198 0
-194 -196 0
-191 -196 0
-193 -196 0
-191 -197 0
